set VV := 0 1 2 3 4 5 6 7 8 9 10 11 12 13 14 15 16 ;
set VS := 0 1 2 3 4 5 6 7 8 9 10 11 12 13 14 15 16 17 18 19 20 21 22 23 24 25 26 27 28 29 30 31 32 33 34 35 36 37 ;
param cv := 
0 23
1 16
2 24
3 13
4 13
5 23
6 18
7 18
8 22
9 19
10 14
11 15
12 25
13 16
14 13
15 15
16 10
;
param cs := 
0 37
1 31
2 29
3 23
4 38
5 29
6 40
7 38
8 32
9 30
10 30
11 30
12 20
13 26
14 36
15 32
16 37
17 22
18 29
19 20
20 26
21 30
22 40
23 38
24 20
25 24
26 36
27 37
28 26
29 27
30 22
31 39
32 31
33 27
34 29
35 25
36 20
37 29
;
param bv:	 0 1 2 3 4 5 6 7 8 9 10 11 12 13 14 15 16 := 
		0 0 0 24 0 0 23 0 13 0 0 0 0 0 0 0 13 0 
		1 0 0 10 13 0 0 0 0 0 0 0 0 0 0 0 0 0 
		2 0 0 0 0 0 0 0 0 0 0 0 0 0 0 0 20 0 
		3 0 0 0 0 0 0 25 0 0 0 0 0 0 0 0 0 0 
		4 0 0 0 0 0 0 0 0 0 0 14 0 0 0 0 0 14 
		5 0 0 0 0 0 0 0 0 0 0 0 0 11 0 0 0 11 
		6 0 0 0 0 0 0 0 0 0 0 0 0 0 0 0 0 0 
		7 0 0 0 0 0 0 0 0 0 0 15 0 11 0 0 0 0 
		8 0 0 0 0 0 0 0 0 0 0 0 25 0 0 0 0 0 
		9 0 0 0 0 0 0 0 0 0 0 0 0 0 0 23 22 0 
		10 0 0 0 0 0 0 0 0 0 0 0 23 0 20 0 0 0 
		11 0 0 0 0 0 0 0 0 0 0 0 0 0 0 0 0 0 
		12 0 0 0 0 0 0 0 0 0 0 0 0 0 0 0 21 0 
		13 0 0 0 0 0 0 0 0 0 0 0 0 0 0 0 0 0 
		14 0 0 0 0 0 0 0 0 0 0 0 0 0 0 0 0 0 
		15 0 0 0 0 0 0 0 0 0 0 0 0 0 0 0 0 0 
		16 0 0 0 0 0 0 0 0 0 0 0 0 0 0 0 0 0 
;
param bs:	 0 1 2 3 4 5 6 7 8 9 10 11 12 13 14 15 16 17 18 19 20 21 22 23 24 25 26 27 28 29 30 31 32 33 34 35 36 37 := 
		0 0 0 0 0 0 0 0 0 0 0 0 0 0 0 0 0 0 0 0 0 0 0 27 30 20 0 0 0 0 0 0 0 0 0 0 0 0 0 
		1 0 0 0 0 0 39 0 0 0 0 0 0 0 0 0 0 0 0 0 0 0 0 0 0 23 40 0 0 0 0 0 0 0 0 0 0 0 0 
		2 0 0 0 0 0 0 0 0 0 0 0 0 0 0 0 0 0 0 0 0 37 26 0 0 29 37 0 0 34 0 0 36 0 0 0 0 20 0 
		3 0 0 0 0 0 0 0 0 0 0 0 0 0 0 0 0 0 0 0 0 0 0 26 0 0 0 0 0 0 0 0 0 39 34 0 0 0 0 
		4 0 0 0 0 0 0 0 0 23 38 0 0 0 0 0 0 37 0 0 0 0 0 0 0 0 0 0 0 0 0 0 0 0 0 30 0 0 0 
		5 0 39 0 0 0 0 0 36 0 33 38 0 0 0 0 0 0 0 0 0 0 0 0 0 0 0 32 0 0 0 0 0 0 0 0 0 0 0 
		6 0 0 0 0 0 0 0 0 0 24 0 28 0 0 0 0 0 0 0 0 0 0 0 0 0 0 0 0 0 0 0 0 0 0 0 0 0 0 
		7 0 0 0 0 0 36 0 0 0 34 0 0 0 0 0 0 0 35 0 0 25 0 0 0 0 28 24 0 35 0 0 0 0 0 0 0 0 0 
		8 0 0 0 0 23 0 0 0 0 34 0 0 0 0 0 33 23 34 23 0 0 0 0 0 0 0 0 0 31 0 0 0 0 0 0 0 0 0 
		9 0 0 0 0 38 33 24 34 34 0 0 0 0 0 0 0 0 0 0 0 0 0 0 0 23 0 0 0 0 0 27 0 0 0 36 0 0 20 
		10 0 0 0 0 0 38 0 0 0 0 0 0 22 0 0 0 0 0 0 0 0 36 0 35 0 0 0 0 25 0 0 0 0 0 0 0 0 0 
		11 0 0 0 0 0 0 28 0 0 0 0 0 0 0 0 0 0 0 0 0 0 0 0 0 0 0 0 0 0 0 0 0 0 0 0 0 0 0 
		12 0 0 0 0 0 0 0 0 0 0 22 0 0 0 0 32 32 0 0 0 0 0 0 0 0 0 0 0 0 0 0 0 0 0 0 0 0 0 
		13 0 0 0 0 0 0 0 0 0 0 0 0 0 0 0 0 0 31 35 30 0 0 0 0 0 30 0 0 0 0 0 0 0 0 0 0 0 0 
		14 0 0 0 0 0 0 0 0 0 0 0 0 0 0 0 0 0 0 0 0 0 0 0 0 28 0 0 0 0 0 0 0 0 0 0 0 0 0 
		15 0 0 0 0 0 0 0 0 33 0 0 0 32 0 0 0 0 0 0 0 0 0 0 0 0 0 0 0 0 0 0 0 0 0 21 34 0 0 
		16 0 0 0 0 37 0 0 0 23 0 0 0 32 0 0 0 0 0 0 0 0 0 0 0 0 0 0 23 0 0 0 0 0 0 0 0 0 0 
		17 0 0 0 0 0 0 0 35 34 0 0 0 0 31 0 0 0 0 0 0 0 0 0 0 0 0 0 0 0 0 0 0 0 33 0 22 0 0 
		18 0 0 0 0 0 0 0 0 23 0 0 0 0 35 0 0 0 0 0 0 0 0 0 0 0 0 30 0 0 0 20 0 0 0 0 0 0 0 
		19 0 0 0 0 0 0 0 0 0 0 0 0 0 30 0 0 0 0 0 0 0 0 0 0 36 0 0 0 0 0 0 0 0 0 0 0 36 0 
		20 0 0 37 0 0 0 0 25 0 0 0 0 0 0 0 0 0 0 0 0 0 0 0 35 25 0 0 0 0 0 0 24 0 0 0 0 0 0 
		21 0 0 26 0 0 0 0 0 0 0 36 0 0 0 0 0 0 0 0 0 0 0 0 0 0 0 0 0 0 0 0 0 21 0 22 0 0 0 
		22 27 0 0 26 0 0 0 0 0 0 0 0 0 0 0 0 0 0 0 0 0 0 0 0 34 20 0 0 0 0 0 24 24 0 0 0 25 0 
		23 30 0 0 0 0 0 0 0 0 0 35 0 0 0 0 0 0 0 0 0 35 0 0 0 0 40 0 0 0 30 0 0 0 0 0 0 0 0 
		24 20 23 29 0 0 0 0 0 0 23 0 0 0 0 28 0 0 0 0 36 25 0 34 0 0 0 35 0 0 0 37 0 0 0 0 0 22 26 
		25 0 40 37 0 0 0 0 28 0 0 0 0 0 30 0 0 0 0 0 0 0 0 20 40 0 0 0 0 0 32 0 0 0 21 0 0 0 0 
		26 0 0 0 0 0 32 0 24 0 0 0 0 0 0 0 0 0 0 30 0 0 0 0 0 35 0 0 0 0 0 0 0 0 0 0 0 0 0 
		27 0 0 0 0 0 0 0 0 0 0 0 0 0 0 0 0 23 0 0 0 0 0 0 0 0 0 0 0 0 0 0 0 0 0 29 0 0 0 
		28 0 0 34 0 0 0 0 35 31 0 25 0 0 0 0 0 0 0 0 0 0 0 0 0 0 0 0 0 0 0 0 0 0 0 0 0 0 26 
		29 0 0 0 0 0 0 0 0 0 0 0 0 0 0 0 0 0 0 0 0 0 0 0 30 0 32 0 0 0 0 0 0 0 0 0 0 0 0 
		30 0 0 0 0 0 0 0 0 0 27 0 0 0 0 0 0 0 0 20 0 0 0 0 0 37 0 0 0 0 0 0 0 0 0 0 0 30 0 
		31 0 0 36 0 0 0 0 0 0 0 0 0 0 0 0 0 0 0 0 0 24 0 24 0 0 0 0 0 0 0 0 0 0 0 0 0 0 0 
		32 0 0 0 39 0 0 0 0 0 0 0 0 0 0 0 0 0 0 0 0 0 21 24 0 0 0 0 0 0 0 0 0 0 0 0 0 0 0 
		33 0 0 0 34 0 0 0 0 0 0 0 0 0 0 0 0 0 33 0 0 0 0 0 0 0 21 0 0 0 0 0 0 0 0 0 0 0 0 
		34 0 0 0 0 30 0 0 0 0 36 0 0 0 0 0 21 0 0 0 0 0 22 0 0 0 0 0 29 0 0 0 0 0 0 0 22 0 0 
		35 0 0 0 0 0 0 0 0 0 0 0 0 0 0 0 34 0 22 0 0 0 0 0 0 0 0 0 0 0 0 0 0 0 0 22 0 0 0 
		36 0 0 20 0 0 0 0 0 0 0 0 0 0 0 0 0 0 0 0 36 0 0 25 0 22 0 0 0 0 0 30 0 0 0 0 0 0 40 
		37 0 0 0 0 0 0 0 0 0 20 0 0 0 0 0 0 0 0 0 0 0 0 0 0 26 0 0 0 26 0 0 0 0 0 0 0 40 0 
;
